Number of options: 20
Size of codes: 15
13 3 11 18 1 12 18 3 1 5 15 18 11 19 2 
Size of probabilities: 15
0.23 0.3 0.14 0.05 0.28 0.54 0.03 0.18 0.17 0.07 0.34 0.02 0.05 0.47 0.12 
Number of assortments: 3
Sizes of assortments: 5 5 5 
-------------------Iteration: 1
CPXPARAM_MIP_Display                             1
CPXPARAM_MIP_Strategy_CallbackReducedLP          0
Tried aggregator 1 time.
LP Presolve eliminated 16 rows and 31 columns.
All rows and columns eliminated.
Presolve time = 0.00 sec. (0.01 ticks)
***********************************************************
Objective value of restricted master problem: 4.85
Lamda: 1 
***********************************************************
CPXPARAM_MIP_Display                             1
CPXPARAM_MIP_Strategy_CallbackReducedLP          0
Tried aggregator 2 times.
MIP Presolve eliminated 4750 rows and 0 columns.
Aggregator did 190 substitutions.
Reduced MIP has 2343 rows, 205 columns, and 6975 nonzeros.
Reduced MIP has 190 binaries, 0 generals, 0 SOSs, and 0 indicators.
Presolve time = 0.02 sec. (13.92 ticks)
Probing time = 0.00 sec. (0.35 ticks)
Tried aggregator 1 time.
Reduced MIP has 2343 rows, 205 columns, and 6975 nonzeros.
Reduced MIP has 190 binaries, 0 generals, 0 SOSs, and 0 indicators.
Presolve time = 0.00 sec. (3.44 ticks)
Probing time = 0.00 sec. (0.35 ticks)
MIP emphasis: balance optimality and feasibility.
MIP search method: dynamic search.
Parallel mode: deterministic, using up to 8 threads.

Node log . . .
Best integer =   0.000000e+00  Node =       0  Best node =  -1.500000e+01
Best integer =  -6.000000e+00  Node =       0  Best node =  -1.500000e+01
***********************************************************

***********************************************************
-------------------Iteration: 2
CPXPARAM_MIP_Display                             1
CPXPARAM_MIP_Strategy_CallbackReducedLP          0
Tried aggregator 1 time.
LP Presolve eliminated 9 rows and 18 columns.
Aggregator did 1 substitutions.
Reduced LP has 6 rows, 13 columns, and 18 nonzeros.
Presolve time = 0.00 sec. (0.01 ticks)
Initializing dual steep norms . . .

Iteration log . . .
Iteration:     1   Dual objective     =             2.700000
***********************************************************
Objective value of restricted master problem: 3.75
Lamda: 0.53 0.47 
***********************************************************
CPXPARAM_MIP_Display                             1
CPXPARAM_MIP_Strategy_CallbackReducedLP          0
Tried aggregator 2 times.
MIP Presolve eliminated 4750 rows and 0 columns.
Aggregator did 190 substitutions.
Reduced MIP has 2343 rows, 205 columns, and 6975 nonzeros.
Reduced MIP has 190 binaries, 0 generals, 0 SOSs, and 0 indicators.
Presolve time = 0.02 sec. (13.92 ticks)
Probing time = 0.00 sec. (0.35 ticks)
Tried aggregator 1 time.
Reduced MIP has 2343 rows, 205 columns, and 6975 nonzeros.
Reduced MIP has 190 binaries, 0 generals, 0 SOSs, and 0 indicators.
Presolve time = 0.00 sec. (3.44 ticks)
Probing time = 0.00 sec. (0.35 ticks)
MIP emphasis: balance optimality and feasibility.
MIP search method: dynamic search.
Parallel mode: deterministic, using up to 8 threads.

Node log . . .
Best integer =   0.000000e+00  Node =       0  Best node =  -1.200000e+01
Best integer =  -6.000000e+00  Node =       0  Best node =  -6.000000e+00
***********************************************************

***********************************************************
-------------------Iteration: 3
CPXPARAM_MIP_Display                             1
CPXPARAM_MIP_Strategy_CallbackReducedLP          0
Tried aggregator 1 time.
LP Presolve eliminated 6 rows and 12 columns.
Reduced LP has 10 rows, 21 columns, and 30 nonzeros.
Presolve time = 0.00 sec. (0.01 ticks)
Initializing dual steep norms . . .

Iteration log . . .
Iteration:     1   Dual objective     =             1.360000
***********************************************************
Objective value of restricted master problem: 2.11
Lamda: 0.19 0.47 0.34 
***********************************************************
CPXPARAM_MIP_Display                             1
CPXPARAM_MIP_Strategy_CallbackReducedLP          0
Tried aggregator 2 times.
MIP Presolve eliminated 4750 rows and 0 columns.
Aggregator did 190 substitutions.
Reduced MIP has 2343 rows, 205 columns, and 6975 nonzeros.
Reduced MIP has 190 binaries, 0 generals, 0 SOSs, and 0 indicators.
Presolve time = 0.02 sec. (13.92 ticks)
Probing time = 0.00 sec. (0.35 ticks)
Tried aggregator 1 time.
Reduced MIP has 2343 rows, 205 columns, and 6975 nonzeros.
Reduced MIP has 190 binaries, 0 generals, 0 SOSs, and 0 indicators.
Presolve time = 0.00 sec. (3.44 ticks)
Probing time = 0.00 sec. (0.35 ticks)
MIP emphasis: balance optimality and feasibility.
MIP search method: dynamic search.
Parallel mode: deterministic, using up to 8 threads.

Node log . . .
Best integer =   0.000000e+00  Node =       0  Best node =  -1.000000e+01
Best integer =  -4.000000e+00  Node =       0  Best node =  -4.000000e+00
***********************************************************

***********************************************************
-------------------Iteration: 4
CPXPARAM_MIP_Display                             1
CPXPARAM_MIP_Strategy_CallbackReducedLP          0
Tried aggregator 1 time.
LP Presolve eliminated 6 rows and 12 columns.
Reduced LP has 10 rows, 22 columns, and 34 nonzeros.
Presolve time = 0.00 sec. (0.01 ticks)

Iteration log . . .
Iteration:     1   Dual objective     =             0.760000
***********************************************************
Objective value of restricted master problem: 1.53
Lamda: 0.19 0.27 0.34 0.2 
***********************************************************
CPXPARAM_MIP_Display                             1
CPXPARAM_MIP_Strategy_CallbackReducedLP          0
Tried aggregator 2 times.
MIP Presolve eliminated 4750 rows and 0 columns.
Aggregator did 190 substitutions.
Reduced MIP has 2343 rows, 205 columns, and 6975 nonzeros.
Reduced MIP has 190 binaries, 0 generals, 0 SOSs, and 0 indicators.
Presolve time = 0.02 sec. (13.92 ticks)
Probing time = 0.00 sec. (0.35 ticks)
Tried aggregator 1 time.
Reduced MIP has 2343 rows, 205 columns, and 6975 nonzeros.
Reduced MIP has 190 binaries, 0 generals, 0 SOSs, and 0 indicators.
Presolve time = 0.00 sec. (3.44 ticks)
Probing time = 0.00 sec. (0.35 ticks)
MIP emphasis: balance optimality and feasibility.
MIP search method: dynamic search.
Parallel mode: deterministic, using up to 8 threads.

Node log . . .
Best integer =   0.000000e+00  Node =       0  Best node =  -9.000000e+00
Best integer =  -6.000000e+00  Node =       0  Best node =  -6.000000e+00
***********************************************************

***********************************************************
-------------------Iteration: 5
CPXPARAM_MIP_Display                             1
CPXPARAM_MIP_Strategy_CallbackReducedLP          0
Tried aggregator 1 time.
LP Presolve eliminated 3 rows and 6 columns.
Reduced LP has 13 rows, 29 columns, and 44 nonzeros.
Presolve time = 0.00 sec. (0.01 ticks)

Iteration log . . .
Iteration:     1   Dual objective     =             0.500000
***********************************************************
Objective value of restricted master problem: 1.25
Lamda: 0.12 0.27 0.34 0.2 0.07 
***********************************************************
CPXPARAM_MIP_Display                             1
CPXPARAM_MIP_Strategy_CallbackReducedLP          0
Tried aggregator 2 times.
MIP Presolve eliminated 4750 rows and 0 columns.
Aggregator did 190 substitutions.
Reduced MIP has 2343 rows, 205 columns, and 6975 nonzeros.
Reduced MIP has 190 binaries, 0 generals, 0 SOSs, and 0 indicators.
Presolve time = 0.02 sec. (13.92 ticks)
Probing time = 0.00 sec. (0.35 ticks)
Tried aggregator 1 time.
Reduced MIP has 2343 rows, 205 columns, and 6975 nonzeros.
Reduced MIP has 190 binaries, 0 generals, 0 SOSs, and 0 indicators.
Presolve time = 0.00 sec. (3.44 ticks)
Probing time = 0.00 sec. (0.35 ticks)
MIP emphasis: balance optimality and feasibility.
MIP search method: dynamic search.
Parallel mode: deterministic, using up to 8 threads.

Node log . . .
Best integer =   0.000000e+00  Node =       0  Best node =  -8.000000e+00
Best integer =  -4.000000e+00  Node =       0  Best node =  -4.000000e+00
***********************************************************

***********************************************************
-------------------Iteration: 6
CPXPARAM_MIP_Display                             1
CPXPARAM_MIP_Strategy_CallbackReducedLP          0
Tried aggregator 1 time.
LP Presolve eliminated 3 rows and 6 columns.
Reduced LP has 13 rows, 30 columns, and 48 nonzeros.
Presolve time = 0.00 sec. (0.01 ticks)

Iteration log . . .
Iteration:     1   Dual objective     =             0.500000
***********************************************************
Objective value of restricted master problem: 1.01
Lamda: 0.12 0.2 0.27 0.27 0.07 0.07 
***********************************************************
CPXPARAM_MIP_Display                             1
CPXPARAM_MIP_Strategy_CallbackReducedLP          0
Tried aggregator 2 times.
MIP Presolve eliminated 4750 rows and 0 columns.
Aggregator did 190 substitutions.
Reduced MIP has 2343 rows, 205 columns, and 6975 nonzeros.
Reduced MIP has 190 binaries, 0 generals, 0 SOSs, and 0 indicators.
Presolve time = 0.02 sec. (13.92 ticks)
Probing time = 0.00 sec. (0.35 ticks)
Tried aggregator 1 time.
Reduced MIP has 2343 rows, 205 columns, and 6975 nonzeros.
Reduced MIP has 190 binaries, 0 generals, 0 SOSs, and 0 indicators.
Presolve time = 0.00 sec. (3.44 ticks)
Probing time = 0.00 sec. (0.35 ticks)
MIP emphasis: balance optimality and feasibility.
MIP search method: dynamic search.
Parallel mode: deterministic, using up to 8 threads.

Node log . . .
Best integer =   0.000000e+00  Node =       0  Best node =  -5.000000e+00
Best integer =  -5.000000e+00  Node =       0  Best node =  -5.000000e+00
***********************************************************

***********************************************************
-------------------Iteration: 7
CPXPARAM_MIP_Display                             1
CPXPARAM_MIP_Strategy_CallbackReducedLP          0
Tried aggregator 1 time.
No LP presolve or aggregator reductions.
Presolve time = 0.00 sec. (0.01 ticks)

Iteration log . . .
Iteration:     1   Dual objective     =             0.000000
***********************************************************
Objective value of restricted master problem: 0.61
Lamda: 0.06 0.06 0.23 0.31 0.05 0.11 0.18 
***********************************************************
CPXPARAM_MIP_Display                             1
CPXPARAM_MIP_Strategy_CallbackReducedLP          0
Tried aggregator 2 times.
MIP Presolve eliminated 4750 rows and 0 columns.
Aggregator did 190 substitutions.
Reduced MIP has 2343 rows, 205 columns, and 6975 nonzeros.
Reduced MIP has 190 binaries, 0 generals, 0 SOSs, and 0 indicators.
Presolve time = 0.02 sec. (13.92 ticks)
Probing time = 0.00 sec. (0.35 ticks)
Tried aggregator 1 time.
Reduced MIP has 2343 rows, 205 columns, and 6975 nonzeros.
Reduced MIP has 190 binaries, 0 generals, 0 SOSs, and 0 indicators.
Presolve time = 0.00 sec. (3.44 ticks)
Probing time = 0.00 sec. (0.35 ticks)
MIP emphasis: balance optimality and feasibility.
MIP search method: dynamic search.
Parallel mode: deterministic, using up to 8 threads.

Node log . . .
Best integer =   0.000000e+00  Node =       0  Best node =  -6.000000e+00
Best integer =  -4.000000e+00  Node =       0  Best node =  -4.000000e+00
***********************************************************

***********************************************************
-------------------Iteration: 8
CPXPARAM_MIP_Display                             1
CPXPARAM_MIP_Strategy_CallbackReducedLP          0
Tried aggregator 1 time.
No LP presolve or aggregator reductions.
Presolve time = 0.00 sec. (0.01 ticks)

Iteration log . . .
Iteration:     1   Dual objective     =             0.000000
***********************************************************
Objective value of restricted master problem: 0.51
Lamda: 0.05 0.04 0.22 0.32 0 0.12 0.18 0.07 
***********************************************************
CPXPARAM_MIP_Display                             1
CPXPARAM_MIP_Strategy_CallbackReducedLP          0
Tried aggregator 2 times.
MIP Presolve eliminated 4750 rows and 0 columns.
Aggregator did 190 substitutions.
Reduced MIP has 2343 rows, 205 columns, and 6975 nonzeros.
Reduced MIP has 190 binaries, 0 generals, 0 SOSs, and 0 indicators.
Presolve time = 0.02 sec. (13.92 ticks)
Probing time = 0.00 sec. (0.35 ticks)
Tried aggregator 1 time.
Reduced MIP has 2343 rows, 205 columns, and 6975 nonzeros.
Reduced MIP has 190 binaries, 0 generals, 0 SOSs, and 0 indicators.
Presolve time = 0.00 sec. (3.44 ticks)
Probing time = 0.00 sec. (0.35 ticks)
MIP emphasis: balance optimality and feasibility.
MIP search method: dynamic search.
Parallel mode: deterministic, using up to 8 threads.

Node log . . .
Best integer =   0.000000e+00  Node =       0  Best node =  -9.000000e+00
Best integer =  -2.000000e+00  Node =       0  Best node =  -2.000000e+00
***********************************************************

***********************************************************
-------------------Iteration: 9
CPXPARAM_MIP_Display                             1
CPXPARAM_MIP_Strategy_CallbackReducedLP          0
Tried aggregator 1 time.
No LP presolve or aggregator reductions.
Presolve time = 0.00 sec. (0.01 ticks)

Iteration log . . .
Iteration:     1   Dual objective     =             0.000000
***********************************************************
Objective value of restricted master problem: 0.45
Lamda: 0 0.03 0.2 0.34 0 0.14 0.17 0.09 0.03 
***********************************************************
CPXPARAM_MIP_Display                             1
CPXPARAM_MIP_Strategy_CallbackReducedLP          0
Tried aggregator 2 times.
MIP Presolve eliminated 4750 rows and 0 columns.
Aggregator did 190 substitutions.
Reduced MIP has 2343 rows, 205 columns, and 6975 nonzeros.
Reduced MIP has 190 binaries, 0 generals, 0 SOSs, and 0 indicators.
Presolve time = 0.02 sec. (13.92 ticks)
Probing time = 0.00 sec. (0.35 ticks)
Tried aggregator 1 time.
Reduced MIP has 2343 rows, 205 columns, and 6975 nonzeros.
Reduced MIP has 190 binaries, 0 generals, 0 SOSs, and 0 indicators.
Presolve time = 0.00 sec. (3.44 ticks)
Probing time = 0.00 sec. (0.35 ticks)
MIP emphasis: balance optimality and feasibility.
MIP search method: dynamic search.
Parallel mode: deterministic, using up to 8 threads.

Node log . . .
Best integer =   5.000000e-01  Node =       0  Best node =  -7.000000e+00
Best integer =   0.000000e+00  Node =       0  Best node =  -7.000000e+00
Best integer =  -2.000000e+00  Node =       0  Best node =  -2.000000e+00
***********************************************************

***********************************************************
-------------------Iteration: 10
CPXPARAM_MIP_Display                             1
CPXPARAM_MIP_Strategy_CallbackReducedLP          0
Tried aggregator 1 time.
No LP presolve or aggregator reductions.
Presolve time = 0.00 sec. (0.01 ticks)

Iteration log . . .
Iteration:     1   Dual objective     =             0.000000
***********************************************************
Objective value of restricted master problem: 0.42
Lamda: 0 0.035 0.2 0.325 0 0.14 0.18 0.075 0.03 0.015 
***********************************************************
CPXPARAM_MIP_Display                             1
CPXPARAM_MIP_Strategy_CallbackReducedLP          0
Tried aggregator 2 times.
MIP Presolve eliminated 4750 rows and 0 columns.
Aggregator did 190 substitutions.
Reduced MIP has 2343 rows, 205 columns, and 6975 nonzeros.
Reduced MIP has 190 binaries, 0 generals, 0 SOSs, and 0 indicators.
Presolve time = 0.02 sec. (13.92 ticks)
Probing time = 0.00 sec. (0.35 ticks)
Tried aggregator 1 time.
Reduced MIP has 2343 rows, 205 columns, and 6975 nonzeros.
Reduced MIP has 190 binaries, 0 generals, 0 SOSs, and 0 indicators.
Presolve time = 0.00 sec. (3.44 ticks)
Probing time = 0.00 sec. (0.35 ticks)
MIP emphasis: balance optimality and feasibility.
MIP search method: dynamic search.
Parallel mode: deterministic, using up to 8 threads.

Node log . . .
Best integer =   1.000000e+00  Node =       0  Best node =  -3.000000e+00
Best integer =   0.000000e+00  Node =       0  Best node =  -3.000000e+00
Best integer =  -1.000000e+00  Node =       0  Best node =  -3.000000e+00
Best integer =  -2.000000e+00  Node =       0  Best node =  -2.000000e+00
***********************************************************

***********************************************************
-------------------Iteration: 11
CPXPARAM_MIP_Display                             1
CPXPARAM_MIP_Strategy_CallbackReducedLP          0
Tried aggregator 1 time.
No LP presolve or aggregator reductions.
Presolve time = 0.00 sec. (0.01 ticks)

Iteration log . . .
Iteration:     1   Dual objective     =             0.000000
***********************************************************
Objective value of restricted master problem: 0.19
Lamda: 0.01 0.03 0.205 0.27 0.05 0.135 0.02 0.02 0.025 0.065 0.17 
***********************************************************
CPXPARAM_MIP_Display                             1
CPXPARAM_MIP_Strategy_CallbackReducedLP          0
Tried aggregator 2 times.
MIP Presolve eliminated 4750 rows and 0 columns.
Aggregator did 190 substitutions.
Reduced MIP has 2343 rows, 205 columns, and 6975 nonzeros.
Reduced MIP has 190 binaries, 0 generals, 0 SOSs, and 0 indicators.
Presolve time = 0.02 sec. (13.92 ticks)
Probing time = 0.00 sec. (0.35 ticks)
Tried aggregator 1 time.
Reduced MIP has 2343 rows, 205 columns, and 6975 nonzeros.
Reduced MIP has 190 binaries, 0 generals, 0 SOSs, and 0 indicators.
Presolve time = 0.00 sec. (3.44 ticks)
Probing time = 0.00 sec. (0.35 ticks)
MIP emphasis: balance optimality and feasibility.
MIP search method: dynamic search.
Parallel mode: deterministic, using up to 8 threads.

Node log . . .
Best integer =   0.000000e+00  Node =       0  Best node =  -6.000000e+00
Best integer =  -4.000000e+00  Node =       0  Best node =  -4.000000e+00
***********************************************************

***********************************************************
-------------------Iteration: 12
CPXPARAM_MIP_Display                             1
CPXPARAM_MIP_Strategy_CallbackReducedLP          0
Tried aggregator 1 time.
No LP presolve or aggregator reductions.
Presolve time = 0.00 sec. (0.01 ticks)

Iteration log . . .
Iteration:     1   Dual objective     =             0.000000
***********************************************************
Objective value of restricted master problem: 0.01
Lamda: 0 0.03 0.2 0.28 0 0.14 0.02 0.07 0.03 0.02 0.16 0.05 
***********************************************************
CPXPARAM_MIP_Display                             1
CPXPARAM_MIP_Strategy_CallbackReducedLP          0
Tried aggregator 2 times.
MIP Presolve eliminated 4750 rows and 0 columns.
Aggregator did 190 substitutions.
Reduced MIP has 2343 rows, 205 columns, and 6975 nonzeros.
Reduced MIP has 190 binaries, 0 generals, 0 SOSs, and 0 indicators.
Presolve time = 0.02 sec. (13.92 ticks)
Probing time = 0.00 sec. (0.35 ticks)
Tried aggregator 1 time.
Reduced MIP has 2343 rows, 205 columns, and 6975 nonzeros.
Reduced MIP has 190 binaries, 0 generals, 0 SOSs, and 0 indicators.
Presolve time = 0.00 sec. (3.44 ticks)
Probing time = 0.00 sec. (0.35 ticks)
MIP emphasis: balance optimality and feasibility.
MIP search method: dynamic search.
Parallel mode: deterministic, using up to 8 threads.

Node log . . .
Best integer =   0.000000e+00  Node =       0  Best node =  -1.000000e+00
Ranking data list: 
Ranking collect: 0 1 2 3 4 5 6 7 8 9 10 11 12 13 14 15 16 17 18 19 
Ranking collect: 19 18 17 16 15 14 13 12 11 10 9 8 7 6 5 4 3 2 1 0 
Ranking collect: 0 4 6 7 8 9 10 12 13 1 3 5 14 15 2 11 16 17 18 19 
Ranking collect: 0 4 6 7 8 9 10 12 1 3 5 14 16 19 11 2 13 15 17 18 
Ranking collect: 0 4 5 6 7 8 9 10 11 1 2 3 12 13 14 15 16 17 18 19 
Ranking collect: 0 4 6 7 8 9 10 14 15 2 11 1 3 5 12 13 16 17 18 19 
Ranking collect: 0 3 1 4 5 6 7 8 9 10 12 13 14 16 17 18 2 11 15 19 
Ranking collect: 0 2 4 5 3 1 6 7 8 9 10 11 12 13 14 15 16 17 18 19 
Ranking collect: 0 2 4 6 7 8 9 10 13 1 3 5 11 12 14 15 16 17 18 19 
Ranking collect: 0 2 4 6 7 8 9 10 12 5 14 15 16 17 18 1 3 11 13 19 
Ranking collect: 0 3 1 4 5 6 7 8 9 10 12 14 16 17 19 2 11 13 15 18 
Ranking collect: 0 4 6 7 8 9 10 12 3 1 5 11 2 13 14 15 16 17 18 19 
